Minimize
  - 4 y_0 - 13 y_1 - 9 y_2 - 8 y_3 - 8 y_4 - 7 y_5 - 10 y_6 - 3 y_7 - 2 y_8
   - 14 y_9 - 10 y_10 - 14 y_11 - 12 y_12 - 11 y_13 - 13 y_14 - 6 y_16
   - 9 y_17 - 5 y_18 - 7 y_19 + 165 Constant
Subject To
 c_0: y_10 = 1
 c_1_0: y_0 + y_7 + y_8 >= 1
 c_1_1: y_1 + y_9 + y_11 >= 1
 c_1_2: y_2 >= 1
 c_1_3: y_3 + y_5 + y_17 + y_18 >= 1
 c_1_4: y_4 + y_16 + y_19 >= 1
 c_1_5: y_3 + y_5 + y_16 + y_17 + y_19 >= 1
 c_1_6: y_6 >= 1
 c_1_7: y_0 + y_7 + y_8 + y_15 >= 1
 c_1_8: y_0 + y_7 + y_8 + y_15 + y_18 >= 1
 c_1_9: y_1 + y_9 >= 1
 c_1_10: y_10 + y_12 + y_13 + y_14 >= 1
 c_1_11: y_1 + y_11 >= 1
 c_1_12: y_10 + y_12 + y_13 + y_14 >= 1
 c_1_13: y_10 + y_12 + y_13 + y_14 >= 1
 c_1_14: y_10 + y_12 + y_13 + y_14 >= 1
 c_1_15: y_7 + y_8 + y_15 >= 1
 c_1_16: y_4 + y_5 + y_16 + y_19 >= 1
 c_1_17: y_3 + y_5 + y_17 >= 1
 c_1_18: y_3 + y_8 + y_18 >= 1
 c_1_19: y_4 + y_5 + y_16 + y_19 >= 1
Bounds
 Constant = 1
Binaries
 y_0 y_1 y_2 y_3 y_4 y_5 y_6 y_7 y_8 y_9 y_10 y_11 y_12 y_13 y_14 y_15 y_16
 y_17 y_18 y_19
End
